13
1 9
2 7
3 7
4 3
5 7
6 9
7 7
8 10
9 1
10 4
11 7
12 7
40
0 1 11
1 0 11
0 2 10
2 0 10
0 3 39
3 0 39
0 4 14
4 0 14
0 5 23
5 0 23
0 6 38
6 0 38
0 7 68
7 0 68
0 8 69
8 0 69
0 9 38
9 0 38
0 10 54
10 0 54
0 11 97
11 0 97
0 12 88
12 0 88
1 3 36
1 4 37
1 5 19
1 7 35
1 8 19
2 4 27
2 11 17
3 10 5
4 12 24
5 9 26
6 8 60
6 11 12
6 12 6
8 10 50
8 12 93
11 12 18
